3 40 1 10
4 5 13 10 17 8 6 13 12 16 11 8 3 15 20 10 8 18 12 15 1 7 11 11 9 2 18 5 2 17 18 5 4 8 17 9 16 7 13 10 
2.86 5.92 3.64 3.15 5.36 3.11 3.01 0.58 0.52 4.91 5.65 5.03 5.68 4.95 2.28 1.68 1.73 5.28 7.19 3.28 2.8 0.52 0.58 5.11 6.93 0.18 1.89 1.16 3.14 3.22 4.52 6.64 3.78 1.18 1.75 4.9 1.9 2.27 4.04 2.92 
4 4 4 4 4 4 4 4 4 4 4 4 4 4 4 4 4 4 4 4 4 4 4 4 4 4 4 4 4 4 4 4 4 4 4 4 4 4 4 4 
1.03 1.2 7.2 0.79 2.1 6.71 1.19 1.63 1.46 2.09 1.56 2.26 7.3 3.94 3.44 0.53 6.04 4.33 6.6 4.14 0.73 5 4.94 5.4 6.57 0.84 1.84 2.73 7.47 4.24 4.28 2.88 4.14 5.98 7.95 0.56 1.45 0.42 7.44 1.67 
1 1 1 1 1 1 1 1 1 1 1 1 1 1 1 1 1 1 1 1 1 1 1 1 1 1 1 1 1 1 1 1 1 1 1 1 1 1 1 1 
1 1 1 1 1 1 1 1 1 1 1 1 1 1 1 1 1 1 1 1 1 1 1 1 1 1 1 1 1 1 1 1 1 1 1 1 1 1 1 1 
1 1 1 1 1 1 1 1 1 1 1 1 1 1 1 1 1 1 1 1 1 1 1 1 1 1 1 1 1 1 1 1 1 1 1 1 1 1 1 1 
0.01 0.01 0.01 0.01 0.01 0.01 0.01 0.01 0.01 0.01 0.01 0.01 0.01 0.01 0.01 0.01 0.01 0.01 0.01 0.01 0.01 0.01 0.01 0.01 0.01 0.01 0.01 0.01 0.01 0.01 0.01 0.01 0.01 0.01 0.01 0.01 0.01 0.01 0.01 0.01 
0.02 0.02 0.02 0.02 0.02 0.02 0.02 0.02 0.02 0.02 0.02 0.02 0.02 0.02 0.02 0.02 0.02 0.02 0.02 0.02 0.02 0.02 0.02 0.02 0.02 0.02 0.02 0.02 0.02 0.02 0.02 0.02 0.02 0.02 0.02 0.02 0.02 0.02 0.02 0.02 
1 1 1 1 1 1 1 1 1 1 1 1 1 1 1 1 1 1 1 1 1 1 1 1 1 1 1 1 1 1 1 1 1 1 1 1 1 1 1 1 
